certificates/rado_a10_c214_N28.cnf
c Rad2 upper bound instance: x1 + 10*x2 - x3 = 214, interval [1,28]
p cnf 28 156
1 7 22 0
-1 -7 -22 0
1 17 23 0
-1 -17 -23 0
1 24 27 0
-1 -24 -27 0
2 8 22 0
-2 -8 -22 0
2 18 23 0
-2 -18 -23 0
2 24 28 0
-2 -24 -28 0
3 9 22 0
-3 -9 -22 0
3 19 23 0
-3 -19 -23 0
4 10 22 0
-4 -10 -22 0
4 20 23 0
-4 -20 -23 0
1 5 21 0
-1 -5 -21 0
5 11 22 0
-5 -11 -22 0
5 21 23 0
-5 -21 -23 0
2 6 21 0
-2 -6 -21 0
6 12 22 0
-6 -12 -22 0
6 22 23 0
-6 -22 -23 0
3 7 21 0
-3 -7 -21 0
7 13 22 0
-7 -13 -22 0
7 23 0
-7 -23 0
4 8 21 0
-4 -8 -21 0
8 14 22 0
-8 -14 -22 0
8 23 24 0
-8 -23 -24 0
5 9 21 0
-5 -9 -21 0
9 15 22 0
-9 -15 -22 0
9 23 25 0
-9 -23 -25 0
6 10 21 0
-6 -10 -21 0
10 16 22 0
-10 -16 -22 0
10 23 26 0
-10 -23 -26 0
7 11 21 0
-7 -11 -21 0
11 17 22 0
-11 -17 -22 0
11 23 27 0
-11 -23 -27 0
8 12 21 0
-8 -12 -21 0
12 18 22 0
-12 -18 -22 0
12 23 28 0
-12 -23 -28 0
9 13 21 0
-9 -13 -21 0
13 19 22 0
-13 -19 -22 0
10 14 21 0
-10 -14 -21 0
14 20 22 0
-14 -20 -22 0
1 15 20 0
-1 -15 -20 0
11 15 21 0
-11 -15 -21 0
15 21 22 0
-15 -21 -22 0
2 16 20 0
-2 -16 -20 0
12 16 21 0
-12 -16 -21 0
16 22 0
-16 -22 0
3 17 20 0
-3 -17 -20 0
13 17 21 0
-13 -17 -21 0
17 22 23 0
-17 -22 -23 0
4 18 20 0
-4 -18 -20 0
14 18 21 0
-14 -18 -21 0
18 22 24 0
-18 -22 -24 0
5 19 20 0
-5 -19 -20 0
15 19 21 0
-15 -19 -21 0
19 22 25 0
-19 -22 -25 0
6 20 0
-6 -20 0
16 20 21 0
-16 -20 -21 0
20 22 26 0
-20 -22 -26 0
7 20 21 0
-7 -20 -21 0
17 21 0
-17 -21 0
21 22 27 0
-21 -22 -27 0
8 20 22 0
-8 -20 -22 0
18 21 22 0
-18 -21 -22 0
22 28 0
-22 -28 0
9 20 23 0
-9 -20 -23 0
19 21 23 0
-19 -21 -23 0
10 20 24 0
-10 -20 -24 0
20 21 24 0
-20 -21 -24 0
1 19 25 0
-1 -19 -25 0
11 20 25 0
-11 -20 -25 0
21 25 0
-21 -25 0
2 19 26 0
-2 -19 -26 0
12 20 26 0
-12 -20 -26 0
21 22 26 0
-21 -22 -26 0
3 19 27 0
-3 -19 -27 0
13 20 27 0
-13 -20 -27 0
21 23 27 0
-21 -23 -27 0
4 19 28 0
-4 -19 -28 0
14 20 28 0
-14 -20 -28 0
21 24 28 0
-21 -24 -28 0
