certificates/rado_a10_c214_N28.drat
-24 21 -27 -28 0
21 -27 -28 0
d -24 21 -27 -28 0
-27 -28 0
d 21 -27 -28 0
27 22 0
d 27 21 22 0
-28 0
22 0
-16 0
-23 -21 0
d -19 -23 -21 0
-21 27 0
27 0
-21 0
17 0
25 0
24 0
12 0
20 0
-23 0
-11 0
-19 0
-1 0
-18 0
-10 0
-6 0
-14 0
-26 0
-8 0
-13 0
-3 0
7 0
0
